
Gurobi 13.0.1 (linux64) logging started Tue Apr  7 10:27:32 2026

Set parameter LogFile to value "logs_sparse/50B_3F_robust_gamma_0d025_theta_0d05199999999999999_2026-04-07_10h27m25s.log"
Set parameter MIPGap to value 0.005
Set parameter OptimalityTol to value 0.005
Gurobi Optimizer version 13.0.1 build v13.0.1rc0 (linux64 - "Linux Mint 22")

CPU model: 12th Gen Intel(R) Core(TM) i7-12700, instruction set [SSE2|AVX|AVX2]
Thread count: 20 physical cores, 20 logical processors, using up to 20 threads

Non-default parameters:
TimeLimit  3600
SoftMemLimit  12
MIPGap  0.005
OptimalityTol  0.005

Optimize a model with 30471 rows, 390571 columns and 1204034 nonzeros (Max)
Model fingerprint: 0x882d63c0
Model has 367561 linear objective coefficients
Variable types: 8071 continuous, 382500 integer (382500 binary)
Coefficient statistics:
  Matrix range     [3e-05, 1e+05]
  Objective range  [1e+00, 3e+03]
  Bounds range     [1e+00, 1e+05]
  RHS range        [8e-03, 1e+05]

Presolve removed 15658 rows and 282436 columns
Presolve time: 0.73s
Presolved: 14813 rows, 108135 columns, 345428 nonzeros
Variable types: 3681 continuous, 104454 integer (104454 binary)
Found heuristic solution: objective -3.88752e+08
Deterministic concurrent LP optimizer: primal and dual simplex
Showing primal log only...

Concurrent spin time: 0.75s (can be avoided by choosing Method=3)

Solved with dual simplex

Root relaxation: objective 1.332138e+08, 11591 iterations, 2.86 seconds (4.52 work units)

    Nodes    |    Current Node    |     Objective Bounds      |     Work
 Expl Unexpl |  Obj  Depth IntInf | Incumbent    BestBd   Gap | It/Node Time

     0     0 1.3321e+08    0 4286 -3.888e+08 1.3321e+08   134%     -    4s
H    0     0                    -2.12414e+08 1.3321e+08   163%     -    4s
H    0     0                    -1.00288e+08 1.3321e+08   233%     -    4s
H    0     0                    -9.98975e+07 1.3321e+08   233%     -    4s
H    0     0                    -7.82427e+07 1.3321e+08   270%     -    4s
H    0     0                    -5.99400e+07 1.3321e+08   322%     -    5s
H    0     0                    -3.16568e+07 1.3321e+08   521%     -    6s
H    0     0                    1.463237e+07 1.3321e+08   810%     -    6s
H    0     0                    1.546722e+07 1.3321e+08   761%     -    6s
H    0     0                    1.586410e+07 1.3321e+08   740%     -    6s
H    0     0                    1.604447e+07 1.3321e+08   730%     -    6s
H    0     0                    1.604607e+07 1.3321e+08   730%     -    6s
H    0     0                    2.657959e+07 1.3321e+08   401%     -    8s
H    0     0                    2.678577e+07 1.3321e+08   397%     -    8s
H    0     0                    2.829691e+07 1.3321e+08   371%     -    8s
H    0     0                    2.852458e+07 1.3321e+08   367%     -    8s
H    0     0                    8.022597e+07 1.3321e+08  66.0%     -   11s
H    0     0                    8.666724e+07 1.3321e+08  53.7%     -   11s
H    0     0                    9.727774e+07 1.3321e+08  36.9%     -   12s
H    0     0                    9.780946e+07 1.3321e+08  36.2%     -   13s
H    0     0                    9.808271e+07 1.3321e+08  35.8%     -   13s
H    0     0                    1.110088e+08 1.3321e+08  20.0%     -   13s
H    0     0                    1.110812e+08 1.3321e+08  19.9%     -   14s
H    0     0                    1.116601e+08 1.3321e+08  19.3%     -   14s
H    0     0                    1.116609e+08 1.3321e+08  19.3%     -   14s
H    0     0                    1.116614e+08 1.3321e+08  19.3%     -   14s
H    0     0                    1.116616e+08 1.3321e+08  19.3%     -   14s
H    0     0                    1.118934e+08 1.3321e+08  19.1%     -   14s
H    0     0                    1.120219e+08 1.3321e+08  18.9%     -   14s
H    0     0                    1.126818e+08 1.3321e+08  18.2%     -   14s
H    0     0                    1.132381e+08 1.3321e+08  17.6%     -   14s
H    0     0                    1.263471e+08 1.3321e+08  5.43%     -   56s
H    0     0                    1.267041e+08 1.3321e+08  5.14%     -   56s
H    0     0                    1.271633e+08 1.3321e+08  4.76%     -   56s
H    0     0                    1.284390e+08 1.3321e+08  3.72%     -   56s
     0     0 1.3321e+08    0 3408 1.2844e+08 1.3321e+08  3.72%     -   65s
H    0     0                    1.284400e+08 1.3321e+08  3.72%     -   82s
     0     0 1.3321e+08    0 3394 1.2844e+08 1.3321e+08  3.71%     -   93s
H    0     0                    1.284681e+08 1.3321e+08  3.69%     -  135s
H    0     0                    1.287797e+08 1.3321e+08  3.44%     -  142s
H    0     0                    1.291276e+08 1.3321e+08  3.16%     -  142s
H    0     0                    1.291667e+08 1.3321e+08  3.13%     -  142s
H    0     0                    1.292790e+08 1.3321e+08  3.04%     -  142s
H    0     0                    1.293031e+08 1.3321e+08  3.02%     -  142s
H    0     0                    1.293032e+08 1.3321e+08  3.02%     -  142s
     0     0 1.3321e+08    0 4283 1.2930e+08 1.3321e+08  3.02%     -  145s
H    0     0                    1.293980e+08 1.3321e+08  2.95%     -  148s
H    0     0                    1.294023e+08 1.3321e+08  2.94%     -  153s
H    0     0                    1.296203e+08 1.3321e+08  2.77%     -  153s
H    0     0                    1.296608e+08 1.3321e+08  2.74%     -  155s
H    0     0                    1.296619e+08 1.3321e+08  2.74%     -  156s
H    0     0                    1.298770e+08 1.3321e+08  2.57%     -  156s
H    0     0                    1.298774e+08 1.3321e+08  2.57%     -  158s
     0     0 1.3321e+08    0 4326 1.2988e+08 1.3321e+08  2.57%     -  178s
     0     0 1.3321e+08    0 4252 1.2988e+08 1.3321e+08  2.57%     -  186s
     0     0 1.3321e+08    0 4344 1.2988e+08 1.3321e+08  2.57%     -  205s
     0     0 1.3321e+08    0 4344 1.2988e+08 1.3321e+08  2.57%     -  206s
     0     0 1.3321e+08    0 4298 1.2988e+08 1.3321e+08  2.57%     -  206s
H    0     2                    1.298864e+08 1.3321e+08  2.56%     -  272s
     0     2 1.3321e+08    0 4282 1.2989e+08 1.3321e+08  2.56%     -  272s
H    1     4                    1.299047e+08 1.3321e+08  2.55%   0.0  283s
H    3     8                    1.307254e+08 1.3321e+08  1.90% 10686  316s
     7    16 1.3321e+08    3 4651 1.3073e+08 1.3321e+08  1.90% 26836  332s
    15    24 1.3321e+08    4 2905 1.3073e+08 1.3321e+08  1.90% 44931 1804s
H   23    40                    1.307647e+08 1.3321e+08  1.87% 181452 2041s
H   26    40                    1.307842e+08 1.3321e+08  1.86% 163003 2041s
H   39    60                    1.307843e+08 1.3321e+08  1.86% 134248 2195s
H   40    60                    1.307847e+08 1.3321e+08  1.86% 131281 2195s
H   53    60                    1.307847e+08 1.3321e+08  1.86% 102017 2195s
H   54    60                    1.307850e+08 1.3321e+08  1.86% 100308 2195s
H   59   148                    1.309880e+08 1.3321e+08  1.70% 93037 2688s
H   65   148                    1.310444e+08 1.3321e+08  1.65% 85220 2688s
H   72   148                    1.310925e+08 1.3321e+08  1.62% 78483 2688s
H   73   148                    1.313070e+08 1.3321e+08  1.45% 77576 2688s
H  110   148                    1.313816e+08 1.3321e+08  1.39% 54849 2688s
H  147   231                    1.313816e+08 1.3321e+08  1.39% 43823 3272s
H  161   231                    1.313816e+08 1.3321e+08  1.39% 41457 3272s
   230   431 1.3321e+08   17 3848 1.3138e+08 1.3321e+08  1.39% 33047 3600s

Cutting planes:
  Gomory: 10
  Implied bound: 54
  MIR: 24
  Flow cover: 103
  Zero half: 5
  RLT: 2336
  Relax-and-lift: 57

Explored 430 nodes (10187184 simplex iterations) in 3600.05 seconds (4535.09 work units)
Thread count was 20 (of 20 available processors)

Solution count 10: 1.31382e+08 1.31382e+08 1.31307e+08 ... 1.30784e+08

Time limit reached
Best objective 1.313815984306e+08, best bound 1.332112514085e+08, gap 1.3926%
